p cnf 19 10
e 1 0
a 2 3 0
e 4 0
a 5 0
e 6 7 0
a 8 9 0
e 10 0
a 11 12 0
e 13 14 0
a 15 0
e 16 0
a 17 0
e 18 19 0
-4 -18 6 0
2 14 -6 0
10 19 -11 2 0
10 -4 -1 9 -17 0
-17 5 18 -6 1 0
-5 -17 -18 -13 0
-13 3 -16 15 -14 0
-13 -6 -8 -9 0
-2 -6 -9 -18 0
5 -13 -9 -19 -4 0
